32	0

0	4	2	3	4	5
7	1	6
2	1	6
1	1	6
2	1	6
7	2	7	9
6	1	8
5	2	10	11
9	2	10	11
9	1	12
9	1	12
6	2	13	14
9	2	15	16
6	2	15	16
9	2	17	18
7	2	17	18
6	1	19
3	1	19
5	1	20
5	1	21
1	1	22
1	2	23	24
10	1	25
6	1	25
4	1	26
10	1	27
5	1	28
9	1	29
9	1	30
6	1	31
4	1	32
0	0
